B7
1.0
  10.0000000000000000    0.0000000000000000    0.0000000000000000
   0.0000000000000000   10.0000000000000000    0.0000000000000000
   0.0000000000000000    0.0000000000000000   10.0000000000000000
B
7
direct
   0.0000000000000000    0.0000000000000000    0.0428571428571429 B
   0.1570000000000000    0.0000000000000000   -0.0071428571428571 B
   0.0785000000000000    0.0785000000000000   -0.0071428571428571 B
   0.0785000000000000   -0.0785000000000000   -0.0071428571428571 B
  -0.0785000000000000    0.0785000000000000   -0.0071428571428571 B
  -0.1570000000000000    0.0000000000000000   -0.0071428571428571 B
  -0.0785000000000000   -0.0785000000000000   -0.0071428571428571 B
